FEATURE = { 'Age', 'Sex', 'Chest pain type', 'Trestbps', 'Cholesterol', 'Fasting blood sugar &lt; 120', 'Resting ecg', 'Max heart rate', 'Exercise induced angina', 'Oldpeak', 'Slope', 'Number of vessels colored', 'Thal', 'target' };

I = 243;

db = [|  1, 0, 1, 1, 0, 0, 0, 0, 0, 0, 0, 0, 1, 0
      |  0, 0, 0, 0, 0, 0, 0, 1, 0, 0, 0, 0, 1, 0
      |  0, 0, 1, 0, 1, 0, 0, 1, 1, 0, 1, 0, 1, 0
      |  0, 0, 1, 1, 0, 0, 1, 1, 0, 0, 1, 0, 1, 0
      |  1, 0, 1, 0, 0, 0, 1, 1, 0, 0, 1, 0, 1, 0
      |  1, 0, 1, 0, 1, 0, 1, 0, 0, 0, 0, 0, 1, 0
      |  0, 0, 1, 1, 1, 1, 1, 1, 0, 0, 1, 0, 1, 0
      |  0, 1, 1, 1, 1, 0, 0, 1, 0, 0, 1, 0, 1, 0
      |  0, 1, 1, 1, 1, 0, 0, 1, 0, 0, 1, 0, 1, 0
      |  0, 1, 1, 0, 0, 0, 1, 0, 1, 0, 0, 0, 1, 0
      |  0, 0, 1, 1, 0, 0, 0, 1, 1, 0, 0, 0, 1, 0
      |  0, 0, 1, 1, 0, 0, 0, 1, 1, 0, 0, 0, 1, 0
      |  0, 0, 1, 1, 0, 0, 0, 1, 1, 0, 0, 0, 1, 0
      |  0, 0, 0, 0, 1, 0, 1, 1, 0, 0, 1, 0, 1, 0
      |  0, 1, 1, 1, 0, 0, 0, 0, 1, 0, 1, 0, 1, 0
      |  0, 0, 1, 0, 1, 0, 0, 1, 0, 0, 1, 0, 1, 0
      |  0, 0, 1, 0, 1, 0, 0, 1, 0, 0, 1, 0, 1, 0
      |  0, 0, 1, 0, 1, 0, 0, 1, 0, 0, 1, 0, 1, 0
      |  0, 0, 1, 0, 1, 0, 0, 1, 0, 0, 1, 0, 1, 0
      |  0, 1, 1, 0, 0, 1, 1, 1, 0, 0, 1, 1, 1, 0
      |  1, 0, 1, 0, 0, 0, 0, 0, 0, 0, 0, 0, 1, 0
      |  0, 1, 1, 0, 1, 0, 0, 1, 0, 0, 1, 0, 1, 1
      |  1, 1, 1, 0, 1, 1, 0, 0, 1, 0, 0, 0, 0, 1
      |  0, 1, 1, 1, 1, 0, 1, 0, 1, 1, 0, 1, 1, 1
      |  0, 1, 1, 0, 1, 0, 0, 0, 1, 1, 0, 0, 1, 1
      |  0, 1, 1, 0, 1, 0, 0, 0, 1, 1, 0, 0, 1, 1
      |  1, 0, 1, 0, 1, 0, 1, 1, 1, 0, 0, 0, 1, 1
      |  0, 1, 1, 0, 0, 0, 1, 0, 1, 1, 0, 0, 1, 1
      |  1, 1, 1, 0, 1, 1, 1, 1, 0, 0, 0, 0, 1, 1
      |  1, 1, 1, 0, 1, 0, 0, 0, 0, 1, 0, 1, 0, 1
      |  0, 1, 1, 0, 1, 1, 0, 0, 1, 0, 0, 1, 1, 1
      |  1, 1, 1, 0, 0, 0, 1, 0, 0, 0, 0, 0, 1, 1
      |  0, 1, 1, 0, 0, 0, 1, 0, 0, 0, 0, 1, 1, 1
      |  1, 1, 1, 1, 0, 0, 0, 0, 0, 0, 0, 0, 0, 1
      |  1, 1, 0, 1, 1, 0, 0, 1, 0, 0, 0, 0, 1, 1
      |  1, 1, 1, 1, 1, 0, 0, 0, 0, 1, 0, 0, 1, 1
      |  1, 0, 1, 0, 1, 0, 1, 1, 0, 0, 1, 0, 1, 0
      |  1, 0, 1, 0, 1, 0, 1, 1, 0, 0, 1, 0, 1, 0
      |  0, 1, 0, 0, 0, 0, 1, 1, 0, 0, 1, 0, 1, 0
      |  0, 1, 0, 0, 0, 0, 1, 1, 0, 0, 1, 0, 1, 0
      |  0, 1, 0, 0, 0, 0, 1, 1, 0, 0, 1, 0, 1, 0
      |  0, 1, 0, 0, 0, 0, 1, 1, 0, 0, 1, 0, 1, 0
      |  0, 1, 0, 0, 0, 0, 1, 1, 0, 0, 1, 0, 1, 0
      |  0, 0, 1, 1, 0, 0, 0, 1, 0, 0, 0, 0, 1, 0
      |  1, 0, 0, 1, 1, 0, 0, 1, 0, 0, 0, 0, 1, 0
      |  0, 0, 0, 0, 0, 0, 1, 1, 0, 0, 1, 0, 1, 0
      |  0, 0, 0, 0, 0, 0, 1, 1, 0, 0, 1, 0, 1, 0
      |  0, 0, 0, 0, 0, 0, 1, 1, 0, 0, 1, 0, 1, 0
      |  0, 0, 0, 0, 0, 0, 1, 1, 0, 0, 1, 0, 1, 0
      |  1, 0, 0, 1, 1, 0, 1, 1, 0, 0, 1, 0, 1, 0
      |  0, 1, 0, 1, 1, 1, 1, 1, 0, 0, 0, 0, 1, 0
      |  0, 0, 0, 0, 1, 1, 0, 1, 1, 0, 1, 0, 1, 0
      |  0, 1, 1, 0, 1, 0, 1, 1, 0, 0, 1, 0, 1, 0
      |  0, 1, 1, 0, 1, 0, 1, 1, 0, 0, 1, 0, 1, 0
      |  0, 1, 1, 0, 1, 0, 1, 1, 0, 0, 1, 0, 1, 0
      |  0, 0, 0, 0, 0, 0, 0, 1, 0, 0, 1, 0, 1, 0
      |  1, 1, 0, 0, 0, 0, 0, 1, 0, 0, 0, 0, 1, 0
      |  1, 0, 1, 1, 1, 0, 0, 1, 0, 0, 0, 0, 1, 0
      |  1, 0, 1, 1, 1, 0, 0, 1, 0, 0, 0, 0, 1, 0
      |  1, 0, 1, 0, 1, 0, 0, 1, 0, 0, 1, 0, 1, 0
      |  0, 1, 1, 0, 0, 0, 1, 1, 0, 0, 1, 0, 1, 0
      |  0, 1, 1, 0, 0, 0, 1, 1, 0, 0, 1, 0, 1, 0
      |  0, 1, 1, 0, 0, 0, 1, 1, 0, 0, 1, 0, 1, 0
      |  0, 1, 1, 0, 0, 0, 1, 1, 0, 0, 1, 0, 1, 0
      |  1, 1, 1, 1, 1, 0, 0, 1, 0, 0, 0, 0, 1, 1
      |  1, 1, 1, 0, 1, 0, 0, 0, 1, 1, 0, 0, 1, 1
      |  1, 0, 1, 0, 1, 0, 1, 0, 0, 0, 0, 0, 1, 1
      |  0, 1, 1, 0, 1, 0, 1, 1, 1, 0, 1, 0, 1, 1
      |  1, 1, 1, 1, 0, 0, 1, 0, 1, 1, 0, 0, 1, 1
      |  1, 1, 1, 1, 0, 0, 1, 0, 1, 1, 0, 0, 1, 1
      |  1, 1, 1, 0, 1, 0, 0, 1, 1, 0, 1, 1, 1, 1
      |  1, 1, 1, 1, 1, 0, 1, 1, 0, 0, 1, 0, 1, 1
      |  0, 0, 1, 0, 1, 0, 1, 0, 1, 0, 0, 0, 1, 1
      |  1, 1, 1, 0, 0, 1, 1, 0, 0, 1, 0, 0, 0, 1
      |  0, 1, 1, 0, 0, 0, 1, 1, 0, 0, 1, 0, 1, 1
      |  0, 1, 1, 0, 0, 0, 1, 1, 0, 0, 1, 0, 1, 1
      |  1, 1, 0, 0, 1, 0, 0, 0, 0, 0, 0, 0, 1, 1
      |  0, 1, 1, 0, 1, 0, 0, 0, 0, 0, 1, 0, 1, 1
      |  0, 1, 0, 0, 0, 0, 1, 1, 1, 1, 0, 0, 1, 1
      |  0, 1, 1, 0, 0, 0, 1, 0, 0, 0, 1, 0, 1, 0
      |  0, 1, 1, 0, 0, 0, 1, 0, 0, 0, 1, 0, 1, 0
      |  0, 1, 1, 0, 0, 0, 1, 1, 1, 0, 1, 0, 1, 0
      |  0, 1, 1, 0, 0, 0, 1, 1, 1, 0, 1, 0, 1, 0
      |  1, 1, 1, 0, 1, 0, 0, 1, 0, 0, 0, 0, 1, 0
      |  0, 1, 0, 0, 1, 0, 1, 1, 0, 0, 1, 0, 1, 0
      |  0, 1, 0, 0, 1, 0, 1, 1, 0, 0, 1, 0, 1, 0
      |  0, 1, 0, 0, 1, 0, 1, 1, 0, 0, 1, 0, 1, 0
      |  0, 1, 0, 0, 1, 0, 1, 1, 0, 0, 1, 0, 1, 0
      |  0, 1, 0, 0, 1, 0, 1, 1, 0, 0, 1, 0, 1, 0
      |  1, 0, 0, 0, 1, 0, 1, 1, 0, 0, 1, 0, 1, 0
      |  0, 1, 1, 1, 0, 0, 1, 1, 0, 0, 1, 1, 1, 0
      |  0, 1, 1, 1, 0, 0, 1, 1, 0, 0, 1, 1, 1, 0
      |  0, 1, 1, 1, 0, 0, 1, 1, 0, 0, 1, 1, 1, 0
      |  1, 0, 1, 1, 1, 0, 1, 1, 1, 0, 1, 0, 1, 0
      |  1, 0, 1, 1, 1, 0, 1, 1, 0, 0, 1, 0, 1, 0
      |  1, 0, 1, 1, 1, 0, 1, 1, 0, 0, 1, 0, 1, 0
      |  0, 1, 0, 0, 0, 1, 1, 1, 0, 0, 1, 0, 1, 0
      |  0, 1, 0, 0, 0, 1, 1, 1, 0, 0, 1, 0, 1, 0
      |  0, 0, 1, 0, 0, 0, 1, 1, 0, 0, 0, 0, 1, 0
      |  0, 0, 1, 0, 0, 0, 1, 1, 0, 0, 0, 0, 1, 0
      |  0, 0, 1, 0, 0, 0, 1, 1, 0, 0, 0, 0, 1, 0
      |  0, 1, 1, 1, 0, 0, 0, 1, 0, 0, 1, 0, 1, 0
      |  0, 1, 1, 1, 0, 0, 0, 1, 0, 0, 1, 0, 1, 0
      |  1, 1, 1, 0, 1, 0, 0, 0, 0, 1, 0, 1, 1, 1
      |  0, 1, 1, 0, 0, 0, 1, 0, 0, 0, 0, 0, 1, 1
      |  1, 1, 1, 1, 1, 0, 0, 0, 1, 1, 0, 0, 1, 1
      |  1, 1, 1, 1, 1, 0, 0, 0, 1, 1, 0, 0, 1, 1
      |  1, 1, 1, 0, 1, 0, 0, 1, 0, 0, 1, 0, 1, 1
      |  0, 1, 0, 0, 1, 0, 1, 0, 0, 0, 0, 0, 1, 1
      |  1, 1, 1, 1, 0, 0, 1, 1, 0, 0, 1, 0, 1, 1
      |  1, 1, 1, 0, 1, 0, 0, 0, 1, 0, 0, 0, 1, 1
      |  1, 1, 1, 0, 1, 1, 0, 0, 1, 0, 0, 0, 1, 1
      |  1, 1, 1, 0, 1, 1, 0, 0, 1, 0, 0, 0, 1, 1
      |  1, 1, 1, 1, 0, 0, 0, 0, 1, 1, 0, 0, 1, 1
      |  0, 1, 1, 0, 1, 0, 0, 1, 0, 0, 0, 0, 1, 1
      |  1, 0, 0, 0, 0, 0, 0, 1, 0, 0, 0, 0, 1, 1
      |  0, 0, 1, 0, 1, 0, 0, 0, 0, 0, 0, 0, 1, 0
      |  0, 1, 0, 0, 0, 0, 0, 1, 0, 0, 0, 0, 1, 0
      |  0, 1, 1, 1, 0, 1, 1, 1, 0, 0, 1, 0, 1, 0
      |  1, 1, 1, 1, 0, 1, 1, 0, 1, 0, 0, 0, 1, 0
      |  1, 1, 1, 1, 0, 0, 1, 1, 0, 0, 0, 0, 0, 0
      |  1, 0, 1, 0, 0, 0, 1, 0, 0, 0, 0, 0, 1, 0
      |  0, 1, 1, 0, 1, 0, 1, 1, 0, 1, 0, 0, 1, 0
      |  1, 0, 1, 1, 1, 0, 1, 0, 0, 0, 1, 0, 1, 0
      |  1, 0, 1, 1, 0, 1, 1, 1, 1, 0, 0, 0, 1, 1
      |  1, 0, 1, 1, 1, 0, 0, 0, 1, 1, 0, 0, 1, 1
      |  0, 1, 1, 1, 0, 0, 1, 1, 0, 1, 0, 0, 1, 1
      |  1, 1, 1, 0, 1, 0, 1, 0, 1, 0, 0, 0, 1, 1
      |  1, 1, 1, 0, 1, 0, 1, 0, 1, 0, 0, 0, 1, 1
      |  1, 1, 0, 0, 0, 0, 1, 1, 0, 0, 1, 0, 1, 1
      |  0, 1, 1, 0, 0, 1, 1, 1, 0, 0, 0, 0, 1, 0
      |  0, 1, 0, 0, 0, 0, 0, 1, 0, 0, 1, 0, 1, 0
      |  0, 1, 0, 0, 0, 0, 0, 1, 0, 0, 1, 0, 1, 0
      |  0, 1, 0, 0, 0, 0, 0, 1, 0, 0, 1, 0, 1, 0
      |  0, 1, 1, 1, 0, 0, 1, 1, 0, 0, 1, 0, 1, 0
      |  0, 1, 0, 1, 0, 0, 1, 0, 0, 0, 0, 0, 0, 0
      |  0, 0, 1, 0, 0, 0, 0, 0, 0, 0, 1, 0, 0, 0
      |  1, 1, 0, 1, 0, 0, 0, 1, 0, 0, 0, 0, 1, 0
      |  0, 0, 1, 0, 1, 0, 1, 0, 0, 0, 1, 0, 1, 0
      |  1, 1, 1, 0, 0, 0, 0, 1, 1, 0, 0, 0, 1, 0
      |  1, 1, 1, 1, 0, 1, 1, 1, 0, 0, 1, 0, 1, 0
      |  1, 0, 1, 1, 1, 1, 0, 1, 0, 0, 1, 0, 1, 0
      |  0, 0, 1, 1, 0, 0, 0, 1, 0, 0, 1, 0, 1, 0
      |  1, 0, 1, 0, 1, 0, 0, 0, 0, 0, 0, 0, 1, 0
      |  0, 0, 1, 0, 1, 1, 0, 0, 1, 1, 0, 0, 1, 1
      |  1, 0, 1, 1, 0, 0, 1, 1, 1, 0, 0, 0, 1, 1
      |  0, 1, 1, 1, 1, 0, 1, 0, 1, 0, 0, 0, 0, 1
      |  0, 1, 1, 1, 0, 1, 0, 1, 1, 1, 0, 0, 1, 1
      |  1, 1, 1, 1, 0, 0, 0, 0, 1, 0, 1, 0, 1, 1
      |  0, 1, 1, 0, 0, 0, 0, 1, 0, 0, 1, 0, 1, 1
      |  1, 1, 1, 1, 0, 0, 0, 0, 1, 1, 1, 0, 1, 1
      |  1, 1, 0, 1, 1, 0, 1, 0, 1, 0, 0, 1, 0, 1
      |  0, 1, 1, 0, 1, 0, 0, 1, 0, 0, 0, 0, 1, 0
      |  1, 0, 0, 1, 0, 0, 1, 0, 0, 1, 0, 0, 1, 0
      |  0, 1, 1, 0, 0, 1, 0, 1, 0, 1, 0, 0, 1, 0
      |  1, 1, 1, 1, 0, 0, 1, 1, 0, 0, 0, 0, 1, 0
      |  1, 1, 1, 0, 0, 0, 1, 1, 1, 0, 1, 0, 1, 0
      |  1, 1, 0, 0, 0, 0, 0, 1, 0, 0, 1, 0, 1, 0
      |  1, 0, 0, 0, 1, 0, 0, 0, 1, 0, 1, 0, 1, 0
      |  0, 1, 0, 0, 1, 0, 0, 1, 0, 0, 1, 0, 1, 0
      |  0, 1, 1, 1, 1, 0, 1, 1, 1, 0, 1, 0, 1, 1
      |  0, 1, 1, 0, 0, 0, 0, 0, 1, 1, 0, 0, 1, 1
      |  0, 1, 1, 0, 0, 0, 0, 0, 1, 0, 0, 0, 1, 1
      |  0, 1, 1, 0, 0, 0, 0, 0, 1, 0, 0, 0, 1, 1
      |  0, 1, 0, 0, 0, 0, 1, 1, 0, 0, 0, 0, 1, 1
      |  1, 0, 1, 0, 1, 0, 0, 1, 1, 0, 0, 0, 1, 1
      |  1, 0, 1, 1, 0, 0, 1, 0, 1, 0, 0, 0, 1, 1
      |  0, 1, 1, 1, 1, 0, 1, 0, 1, 0, 0, 0, 1, 1
      |  1, 1, 1, 1, 0, 0, 1, 1, 1, 0, 1, 0, 1, 1
      |  1, 1, 0, 0, 1, 0, 0, 1, 0, 0, 0, 0, 1, 1
      |  1, 0, 1, 1, 1, 0, 0, 1, 0, 0, 1, 0, 1, 0
      |  1, 0, 1, 1, 1, 0, 0, 1, 0, 0, 1, 0, 1, 0
      |  1, 1, 0, 0, 0, 0, 0, 0, 1, 0, 0, 0, 1, 0
      |  1, 1, 0, 1, 0, 0, 0, 0, 0, 0, 1, 0, 1, 0
      |  0, 1, 1, 0, 1, 1, 0, 1, 0, 0, 1, 1, 1, 0
      |  1, 1, 1, 0, 1, 0, 1, 0, 1, 0, 0, 0, 1, 0
      |  0, 0, 0, 0, 0, 0, 1, 0, 0, 0, 0, 0, 1, 0
      |  0, 1, 1, 0, 1, 0, 0, 1, 0, 0, 1, 0, 1, 0
      |  0, 1, 1, 1, 1, 0, 1, 1, 0, 0, 1, 0, 1, 0
      |  1, 1, 1, 1, 0, 0, 0, 0, 0, 1, 1, 0, 0, 0
      |  1, 1, 1, 1, 1, 0, 0, 0, 0, 0, 0, 1, 1, 1
      |  1, 1, 1, 0, 1, 0, 0, 1, 0, 0, 0, 0, 1, 1
      |  1, 0, 1, 1, 1, 0, 0, 1, 0, 1, 0, 0, 1, 1
      |  1, 0, 1, 1, 1, 0, 0, 1, 0, 1, 0, 0, 1, 1
      |  1, 1, 1, 1, 1, 0, 0, 0, 1, 0, 1, 0, 1, 1
      |  1, 0, 1, 1, 1, 0, 1, 0, 1, 0, 0, 0, 1, 1
      |  1, 1, 1, 0, 1, 0, 1, 0, 1, 1, 0, 0, 1, 1
      |  1, 0, 1, 1, 1, 1, 0, 0, 1, 1, 0, 0, 1, 1
      |  1, 1, 1, 1, 1, 0, 0, 0, 1, 0, 0, 0, 1, 1
      |  1, 1, 0, 0, 1, 0, 1, 0, 0, 0, 1, 0, 1, 1
      |  0, 1, 1, 0, 0, 0, 0, 1, 0, 0, 0, 0, 1, 0
      |  0, 1, 0, 0, 0, 0, 0, 0, 1, 0, 1, 0, 1, 0
      |  1, 1, 0, 1, 0, 1, 0, 0, 0, 0, 0, 0, 1, 0
      |  1, 1, 0, 0, 0, 1, 0, 0, 0, 0, 1, 0, 1, 0
      |  1, 0, 0, 1, 0, 0, 1, 1, 0, 0, 1, 0, 1, 0
      |  1, 0, 0, 1, 0, 0, 1, 1, 0, 0, 1, 0, 1, 0
      |  1, 0, 0, 1, 0, 0, 1, 1, 0, 0, 1, 0, 1, 0
      |  0, 1, 1, 0, 1, 1, 1, 1, 0, 0, 1, 0, 1, 0
      |  1, 1, 0, 0, 0, 0, 1, 1, 0, 0, 1, 0, 1, 0
      |  0, 0, 1, 1, 0, 0, 1, 1, 0, 0, 0, 0, 1, 0
      |  0, 0, 1, 0, 0, 0, 1, 1, 0, 0, 1, 0, 1, 0
      |  0, 0, 1, 0, 0, 0, 1, 1, 0, 0, 1, 0, 1, 0
      |  1, 1, 0, 1, 1, 0, 0, 0, 0, 1, 0, 0, 1, 0
      |  1, 1, 1, 0, 0, 1, 1, 1, 1, 0, 1, 0, 1, 1
      |  0, 1, 1, 1, 0, 0, 0, 0, 1, 0, 0, 0, 1, 1
      |  1, 1, 0, 1, 1, 0, 0, 0, 0, 0, 1, 0, 1, 1
      |  1, 0, 1, 1, 0, 0, 0, 0, 0, 0, 0, 1, 1, 1
      |  1, 1, 0, 1, 1, 1, 0, 1, 0, 0, 0, 0, 1, 1
      |  1, 1, 1, 0, 0, 0, 0, 0, 1, 1, 0, 0, 1, 1
      |  1, 1, 1, 0, 0, 0, 0, 0, 1, 1, 0, 0, 1, 1
      |  1, 1, 1, 1, 1, 0, 0, 0, 1, 0, 0, 0, 0, 1
      |  1, 0, 1, 1, 0, 0, 0, 0, 0, 1, 0, 1, 1, 1
      |  0, 1, 1, 0, 1, 1, 0, 1, 1, 0, 1, 0, 1, 1
      |  1, 0, 1, 0, 0, 0, 0, 0, 1, 0, 0, 0, 1, 1
      |  0, 1, 1, 1, 0, 0, 1, 1, 0, 0, 1, 0, 1, 1
      |  1, 1, 1, 0, 0, 0, 1, 0, 1, 0, 0, 0, 0, 0
      |  0, 1, 1, 1, 1, 0, 0, 1, 1, 0, 1, 0, 1, 0
      |  1, 0, 0, 1, 1, 1, 0, 1, 0, 0, 1, 0, 1, 0
      |  1, 1, 1, 1, 0, 1, 0, 1, 0, 0, 1, 0, 1, 0
      |  0, 1, 1, 0, 1, 0, 1, 1, 0, 0, 0, 0, 1, 0
      |  1, 1, 1, 1, 1, 0, 0, 1, 0, 0, 1, 0, 1, 0
      |  0, 0, 1, 1, 1, 0, 0, 0, 0, 0, 1, 0, 1, 0
      |  1, 1, 1, 0, 0, 0, 0, 1, 0, 1, 0, 0, 1, 1
      |  0, 1, 1, 0, 0, 0, 1, 0, 1, 0, 0, 0, 1, 1
      |  1, 1, 1, 1, 1, 0, 0, 0, 1, 0, 0, 1, 1, 1
      |  1, 1, 1, 0, 0, 0, 0, 0, 1, 1, 0, 0, 0, 1
      |  1, 1, 1, 1, 1, 1, 0, 0, 0, 0, 0, 1, 1, 1
      |  1, 1, 1, 0, 0, 0, 0, 0, 1, 0, 1, 0, 1, 1
      |  1, 0, 0, 1, 1, 1, 0, 1, 0, 0, 1, 0, 1, 1
      |  1, 0, 1, 0, 1, 0, 1, 1, 1, 0, 1, 0, 1, 0
      |  0, 1, 1, 0, 0, 1, 0, 1, 0, 0, 0, 0, 1, 0
      |  1, 1, 0, 1, 0, 0, 1, 1, 1, 0, 1, 0, 1, 0
      |  1, 0, 1, 0, 0, 0, 1, 0, 0, 0, 1, 0, 1, 0
      |  1, 0, 1, 0, 0, 1, 1, 0, 0, 0, 1, 0, 1, 0
      |  0, 0, 1, 0, 1, 0, 1, 1, 0, 0, 1, 0, 1, 0
      |  1, 1, 1, 1, 0, 1, 1, 0, 0, 1, 0, 0, 1, 1
      |  1, 1, 1, 0, 0, 0, 0, 1, 0, 1, 1, 0, 1, 1
      |  0, 1, 1, 1, 0, 0, 1, 1, 0, 0, 0, 0, 1, 1
      |  1, 0, 1, 0, 0, 0, 1, 0, 1, 0, 0, 0, 1, 1
      |  0, 1, 1, 0, 0, 0, 0, 0, 0, 0, 1, 1, 1, 1
      |  1, 0, 1, 0, 1, 0, 0, 1, 0, 0, 1, 0, 1, 1
      |  1, 1, 1, 0, 0, 0, 1, 1, 0, 0, 1, 0, 1, 1
      |  1, 1, 1, 1, 1, 1, 0, 1, 1, 0, 0, 0, 1, 1 |];

class = 'target';

